
Starting CP-SAT solver v9.15.6755
Parameters: random_seed: 2026072888 max_time_in_seconds: 14550.246700786 log_search_progress: true cp_model_presolve: true linearization_level: 2 num_search_workers: 4 cp_model_probing_level: 2 symmetry_level: 2

Initial satisfaction model '': (model_fingerprint: 0x8c861ef723caead3)
#Variables: 724 (608 primary variables)
  - 724 Booleans in [0,1]
#kBoolAnd: 110 (#enforced: 110) (#literals: 330)
#kBoolOr: 110 (#enforced: 110) (#literals: 220)
#kExactlyOne: 87 (#literals: 261)
#kLinear1: 32 (#enforced: 6)
#kLinear2: 336 (#enforced: 336) (#complex_domain: 110)
#kLinear3: 1'600 (#enforced: 6)
#kLinearN: 1'132 (#enforced: 243) (#terms: 9'111)

Starting presolve at 0.00s
  5.44e-04s  0.00e+00d  [DetectDominanceRelations] 
  7.17e-03s  0.00e+00d  [PresolveToFixPoint] #num_loops=3 #num_dual_strengthening=1 
  2.85e-05s  0.00e+00d  [ExtractEncodingFromLinear] #potential_supersets=82 
  2.42e-04s  0.00e+00d  [DetectDuplicateColumns] 
  8.16e-05s  0.00e+00d  [DetectDuplicateConstraints] #duplicates=5 
[Symmetry] Graph for symmetry has 4'869 nodes and 15'718 arcs.
[Symmetry] Symmetry computation done. time: 0.00105245 dtime: 0.00180053
[SAT presolve] num removable Booleans: 220 / 626
[SAT presolve] num trivial clauses: 0
[SAT presolve] [0s] clauses:2'730 literals:7'422 vars:506 one_side_vars:66 simple_definition:1 singleton_clauses:0
[SAT presolve] [0.000204668s] clauses:2'729 literals:7'415 vars:506 one_side_vars:66 simple_definition:1 singleton_clauses:0
[SAT presolve] [0.000619981s] clauses:2'250 literals:6'611 vars:380 one_side_vars:73 simple_definition:65 singleton_clauses:0
  9.78e-05s  0.00e+00d  [DetectDuplicateConstraintsWithDifferentEnforcements] 
  4.65e-03s  2.28e-03d  [Probe] #probed=1'316 #equiv=2 #new_binary_clauses=1'457 
  4.42e-04s  5.03e-04d  [MaxClique] Merged 585 constraints with 1'287 literals into 479 constraints with 1'133 literals
  6.87e-04s  0.00e+00d  [DetectDominanceRelations] 
  2.70e-03s  0.00e+00d  [PresolveToFixPoint] #num_loops=1 #num_dual_strengthening=1 
  1.15e-03s  0.00e+00d  [ProcessAtMostOneAndLinear] 
  7.35e-05s  0.00e+00d  [DetectDuplicateConstraints] 
  6.31e-05s  0.00e+00d  [DetectDuplicateConstraintsWithDifferentEnforcements] 
  1.81e-03s  8.64e-05d  [DetectDominatedLinearConstraints] #relevant_constraints=848 #num_inclusions=442 #num_redundant=7 
  1.07e-04s  0.00e+00d  [DetectDifferentVariables] 
  6.50e-04s  8.64e-05d  [ProcessSetPPC] #relevant_constraints=3'048 #num_inclusions=97 
  2.60e-04s  3.35e-05d  [TransformClausesToExactlyOne] #num_amos=544 #num_clauses=1'669 #num_checked=1'669 
  3.01e-05s  0.00e+00d  [DetectEncodedComplexDomains] 
  2.33e-05s  0.00e+00d  [FindAlmostIdenticalLinearConstraints] 
  8.62e-04s  1.51e-03d  [FindBigAtMostOneAndLinearOverlap] 
  1.24e-03s  1.01e-03d  [FindBigVerticalLinearOverlap] #blocks=9 #saved_nz=350 
  1.38e-04s  2.76e-04d  [FindBigHorizontalLinearOverlap] #linears=472 
  2.81e-04s  2.70e-05d  [MergeClauses] #num_collisions=21 #num_merges=21 #num_saved_literals=105 
  6.96e-04s  0.00e+00d  [DetectDominanceRelations] 
  2.75e-03s  0.00e+00d  [PresolveToFixPoint] #num_loops=2 #num_dual_strengthening=1 
  6.90e-04s  0.00e+00d  [DetectDominanceRelations] 
  2.53e-03s  0.00e+00d  [PresolveToFixPoint] #num_loops=1 #num_dual_strengthening=1 
  2.10e-04s  0.00e+00d  [DetectDuplicateColumns] 
  7.25e-05s  0.00e+00d  [DetectDuplicateConstraints] 
[Symmetry] Graph for symmetry has 4'459 nodes and 13'892 arcs.
[Symmetry] Symmetry computation done. time: 0.000820898 dtime: 0.00136547
[SAT presolve] num removable Booleans: 93 / 503
[SAT presolve] num trivial clauses: 0
[SAT presolve] [0s] clauses:2'161 literals:6'405 vars:475 one_side_vars:166 simple_definition:77 singleton_clauses:0
[SAT presolve] [0.000194197s] clauses:2'159 literals:6'217 vars:475 one_side_vars:207 simple_definition:69 singleton_clauses:0
[SAT presolve] [0.000265873s] clauses:2'152 literals:6'215 vars:471 one_side_vars:208 simple_definition:59 singleton_clauses:0
  1.39e-04s  0.00e+00d  [DetectDuplicateConstraintsWithDifferentEnforcements] #without_enforcements=1 
  5.26e-03s  2.24e-03d  [Probe] #probed=1'328 #new_binary_clauses=1'438 
  4.37e-04s  5.56e-04d  [MaxClique] Merged 548 constraints with 1'224 literals into 535 constraints with 1'215 literals
  6.92e-04s  0.00e+00d  [DetectDominanceRelations] 
  2.64e-03s  0.00e+00d  [PresolveToFixPoint] #num_loops=1 #num_dual_strengthening=1 
  1.08e-03s  0.00e+00d  [ProcessAtMostOneAndLinear] 
  1.05e-04s  0.00e+00d  [DetectDuplicateConstraints] 
  7.25e-05s  0.00e+00d  [DetectDuplicateConstraintsWithDifferentEnforcements] #without_enforcements=1 
  4.74e-04s  5.12e-05d  [DetectDominatedLinearConstraints] #relevant_constraints=843 #num_inclusions=279 
  1.13e-04s  0.00e+00d  [DetectDifferentVariables] 
  6.61e-04s  7.35e-05d  [ProcessSetPPC] #relevant_constraints=3'105 #num_inclusions=99 
  2.46e-04s  3.31e-05d  [TransformClausesToExactlyOne] #num_amos=535 #num_clauses=1'676 #num_checked=1'676 
  1.26e-04s  0.00e+00d  [DetectEncodedComplexDomains] 
  3.19e-05s  0.00e+00d  [FindAlmostIdenticalLinearConstraints] 
  7.54e-04s  1.08e-03d  [FindBigAtMostOneAndLinearOverlap] 
  1.15e-03s  9.08e-04d  [FindBigVerticalLinearOverlap] #blocks=3 #saved_nz=243 
  1.49e-04s  2.76e-04d  [FindBigHorizontalLinearOverlap] #linears=474 
  2.91e-04s  2.63e-05d  [MergeClauses] #num_collisions=75 #num_merges=75 #num_saved_literals=217 
  6.98e-04s  0.00e+00d  [DetectDominanceRelations] 
  2.67e-03s  0.00e+00d  [PresolveToFixPoint] #num_loops=2 #num_dual_strengthening=1 
  7.01e-04s  0.00e+00d  [DetectDominanceRelations] 
  2.60e-03s  0.00e+00d  [PresolveToFixPoint] #num_loops=1 #num_dual_strengthening=1 
  1.80e-04s  0.00e+00d  [DetectDuplicateColumns] 
  7.78e-05s  0.00e+00d  [DetectDuplicateConstraints] 
[Symmetry] Graph for symmetry has 4'397 nodes and 13'310 arcs.
[Symmetry] Symmetry computation done. time: 0.00080929 dtime: 0.00134104
[SAT presolve] num removable Booleans: 89 / 499
[SAT presolve] num trivial clauses: 0
[SAT presolve] [0s] clauses:2'138 literals:6'182 vars:471 one_side_vars:209 simple_definition:59 singleton_clauses:0
[SAT presolve] [0.000185667s] clauses:2'138 literals:6'182 vars:471 one_side_vars:209 simple_definition:59 singleton_clauses:0
[SAT presolve] [0.000244692s] clauses:2'138 literals:6'182 vars:471 one_side_vars:209 simple_definition:59 singleton_clauses:0
  1.41e-04s  0.00e+00d  [DetectDuplicateConstraintsWithDifferentEnforcements] 
  5.15e-03s  2.22e-03d  [Probe] #probed=1'328 #new_binary_clauses=1'437 
  4.49e-04s  5.53e-04d  [MaxClique] Merged 534 constraints with 1'207 literals into 533 constraints with 1'206 literals
  7.19e-04s  0.00e+00d  [DetectDominanceRelations] 
  2.66e-03s  0.00e+00d  [PresolveToFixPoint] #num_loops=1 #num_dual_strengthening=1 
  1.04e-03s  0.00e+00d  [ProcessAtMostOneAndLinear] 
  8.90e-05s  0.00e+00d  [DetectDuplicateConstraints] 
  7.69e-05s  0.00e+00d  [DetectDuplicateConstraintsWithDifferentEnforcements] 
  4.00e-04s  4.51e-05d  [DetectDominatedLinearConstraints] #relevant_constraints=845 #num_inclusions=268 
  1.23e-04s  0.00e+00d  [DetectDifferentVariables] 
  6.60e-04s  7.01e-05d  [ProcessSetPPC] #relevant_constraints=3'109 #num_inclusions=77 
  2.67e-04s  3.32e-05d  [TransformClausesToExactlyOne] #num_amos=533 #num_clauses=1'680 #num_checked=1'680 
  1.20e-04s  0.00e+00d  [DetectEncodedComplexDomains] 
  4.04e-05s  0.00e+00d  [FindAlmostIdenticalLinearConstraints] 
  6.88e-04s  8.97e-04d  [FindBigAtMostOneAndLinearOverlap] 
  9.60e-04s  7.41e-04d  [FindBigVerticalLinearOverlap] 
  1.62e-04s  2.76e-04d  [FindBigHorizontalLinearOverlap] #linears=474 
  2.93e-04s  2.63e-05d  [MergeClauses] #num_collisions=77 #num_merges=77 #num_saved_literals=221 
  7.23e-04s  0.00e+00d  [DetectDominanceRelations] 
  2.67e-03s  0.00e+00d  [PresolveToFixPoint] #num_loops=1 #num_dual_strengthening=1 
  1.67e-05s  0.00e+00d  [MergeNoOverlap] 
  1.55e-05s  0.00e+00d  [MergeNoOverlap2D] 

Presolve summary:
  - 32 affine relations were detected.
  - rule 'TODO dual: only one blocking constraint?' was applied 946 times.
  - rule 'TODO dual: tighten at most one' was applied 8 times.
  - rule 'TODO linear inclusion: superset is equality' was applied 74 times.
  - rule 'affine: new relation' was applied 32 times.
  - rule 'at_most_one: transformed into max clique' was applied 3 times.
  - rule 'bool_or: implications' was applied 72 times.
  - rule 'bool_or: only one literal' was applied 12 times.
  - rule 'bool_or: removed enforcement literal' was applied 573 times.
  - rule 'deductions: 873 stored' was applied 1 time.
  - rule 'duplicate: merged rhs of linear constraint' was applied 4 times.
  - rule 'duplicate: removed constraint' was applied 5 times.
  - rule 'duplicate: removed enforced constraint' was applied 1 time.
  - rule 'enforcement: false literal' was applied 28 times.
  - rule 'enforcement: true literal' was applied 2 times.
  - rule 'exactly_one: removed literals' was applied 33 times.
  - rule 'exactly_one: satisfied' was applied 3 times.
  - rule 'exactly_one: singleton' was applied 3 times.
  - rule 'exactly_one: size two' was applied 30 times.
  - rule 'incompatible linear: add implication' was applied 144 times.
  - rule 'linear + amo: empty after processing' was applied 6 times.
  - rule 'linear + amo: extracted enforcement literal' was applied 56 times.
  - rule 'linear inclusion: redundant containing constraint' was applied 3 times.
  - rule 'linear inclusion: redundant included constraint' was applied 3 times.
  - rule 'linear inclusion: sparsify superset' was applied 1 time.
  - rule 'linear matrix: common vertical rectangle' was applied 12 times.
  - rule 'linear1: always true' was applied 1 time.
  - rule 'linear1: x in domain' was applied 26 times.
  - rule 'linear2: convert ax + by != cte to clauses' was applied 262 times.
  - rule 'linear2: convert implied ax + by == cte to clauses' was applied 118 times.
  - rule 'linear2: implied ax + by = cte has only one solution' was applied 10 times.
  - rule 'linear: always true' was applied 414 times.
  - rule 'linear: empty' was applied 1 time.
  - rule 'linear: extracted at most one (max)' was applied 1 time.
  - rule 'linear: fixed or dup variables' was applied 877 times.
  - rule 'linear: negative clause' was applied 1'295 times.
  - rule 'linear: negative reified and' was applied 78 times.
  - rule 'linear: never in domain' was applied 6 times.
  - rule 'linear: positive at most one' was applied 30 times.
  - rule 'linear: reduced variable domains' was applied 13 times.
  - rule 'linear: remapped using affine relations' was applied 19 times.
  - rule 'new_bool: integer encoding' was applied 6 times.
  - rule 'presolve: 66 unused variables removed.' was applied 1 time.
  - rule 'presolve: iteration' was applied 3 times.
  - rule 'probing: bool_or reduced to implication' was applied 29 times.
  - rule 'probing: simplified clauses' was applied 12 times.
  - rule 'setppc: bool_or in at_most_one' was applied 7 times.
  - rule 'setppc: removed dominated constraints' was applied 100 times.
  - rule 'variables: add encoding constraint' was applied 6 times.

Presolved satisfaction model '': (model_fingerprint: 0xcdb13c7545c56a3d)
#Variables: 511 (440 primary variables)
  - 499 Booleans in [0,1]
  - 11 in [0,2]
  - 1 in [0,9]
#kAtMostOne: 77 (#literals: 294)
#kBoolAnd: 269 (#enforced: 269) (#literals: 725)
#kBoolAndClauses: 77 (#enforced: 77 #multi: 77) (#literals: 375)
#kBoolOr: 1'526 (#literals: 4'670)
#kExactlyOne: 57 (#literals: 211)
#kLinear1: 12 (#enforced: 12)
#kLinear3: 6 (#enforced: 4)
#kLinearN: 839 (#enforced: 136) (#terms: 5'601)
[Symmetry] Graph for symmetry has 4'163 nodes and 13'303 arcs.
[Symmetry] Symmetry computation done. time: 0.00071607 dtime: 0.00132526

Preloading model.
#Model   0.08s var:511/511 constraints:2863/2863

Starting search at 0.08s with 4 workers.
3 full problem subsolvers: [default_lp, max_lp, no_lp]
1 first solution subsolver: [fj]
2 interleaved subsolvers: [feasibility_pump, rins/rens]
2 helper subsolvers: [neighborhood_helper, synchronization_agent]

#Model  28.80s var:510/511 constraints:2861/2863
#Model  29.29s var:509/511 constraints:2859/2863
#Model 110.47s var:504/511 constraints:2804/2863
#Model 216.50s var:503/511 constraints:2802/2863
#Model 253.65s var:502/511 constraints:2788/2863
#Model 522.95s var:499/511 constraints:2769/2863
#Model 528.46s var:498/511 constraints:2769/2863
#Model 806.84s var:497/511 constraints:2769/2863
#Model 910.90s var:496/511 constraints:2767/2863
#Model 974.00s var:494/511 constraints:2759/2863
#Model 976.75s var:493/511 constraints:2758/2863
#Model 1053.58s var:492/511 constraints:2757/2863
#Model 1055.70s var:489/511 constraints:2754/2863
#Model 1074.11s var:488/511 constraints:2753/2863
#Model 1091.54s var:487/511 constraints:2753/2863
#Model 1097.67s var:485/511 constraints:2750/2863
#Model 1463.70s var:484/511 constraints:2749/2863
#Model 1619.19s var:483/511 constraints:2748/2863
#Model 1629.36s var:482/511 constraints:2747/2863
#Model 1669.94s var:480/511 constraints:2744/2863
#Model 2187.41s var:479/511 constraints:2727/2863
#Model 2431.51s var:478/511 constraints:2710/2863
#Model 2461.28s var:477/511 constraints:2706/2863
#Model 2497.35s var:476/511 constraints:2703/2863
#Model 2508.73s var:475/511 constraints:2684/2863
#Model 2509.24s var:473/511 constraints:2649/2863
#Model 2509.79s var:469/511 constraints:2588/2863
#Done  2509.90s no_lp

Task timing                   n [     min,      max]      avg      dev     time         n [     min,      max]      avg      dev    dtime
        'default_lp':         1 [  41.83m,   41.83m]   41.83m   0.00ns   41.83m         2 [  2.30ms,   52.48m]   26.24m   26.24m   52.48m
  'feasibility_pump':     12773 [864.57us, 153.95ms]   1.50ms   1.37ms   19.21s     12772 [288.20us, 156.24ms] 302.30us   1.38ms    3.86s
                'fj':     10645 [ 77.65ms, 154.33ms] 119.99ms   8.84ms   21.29m     10645 [ 52.83ms, 100.10ms] 100.01ms 457.47us   17.74m
            'max_lp':         1 [  41.83m,   41.83m]   41.83m   0.00ns   41.83m         2 [107.46ms,   58.45m]   29.22m   29.22m   58.45m
             'no_lp':         1 [  41.83m,   41.83m]   41.83m   0.00ns   41.83m         2 [  2.19ms,    1.64h]   49.23m   49.23m    1.64h
         'rins/rens':     12773 [ 17.63ms, 159.07ms]  94.88ms  39.30ms   20.20m     12773 [137.82us, 100.28ms]  66.05ms  39.06ms   14.06m

Search stats     Bools   Conflicts    Branches  Restarts  BacktrackToRoot   Backtrack     BoolPropag  IntegerPropag
  'default_lp':    499     298'768   8'104'074     1'540        1'316'777   1'945'753    102'415'950    102'904'342
      'max_lp':    499     240'314   8'615'755     1'091        1'333'421   1'892'813    107'362'857    111'174'283
       'no_lp':    499  19'712'044  26'770'146    64'817          523'230  20'116'578  1'635'630'252    452'151'963

SAT formula      Fixed  Equiv  Total  VarLeft  BinaryClauses  PermanentClauses  TemporaryClauses
  'default_lp':     35      9    499      455          2'318            56'808             3'788
      'max_lp':     35      9    499      455          2'400            56'282             3'561
       'no_lp':     54      9    499      436          2'364           104'448             2'260

SAT stats        ClassicMinim   LitRemoved  LitRemovedBinary   LitLearned  LitForgotten   Subsumed
  'default_lp':       260'806    3'923'207         2'032'142    8'583'775     5'303'107    110'838
      'max_lp':       203'834    2'772'172         1'573'759    5'656'796     3'410'251     73'059
       'no_lp':    17'681'301  333'589'287       131'155'986  489'965'282   392'911'220  5'197'537

Vivification       Clauses  Decisions  LitTrue  Subsumed  LitRemoved  DecisionReused  Conflicts
  'default_lp':  1'359'017  7'446'710        3    26'420     309'898         422'257      3'555
      'max_lp':  1'322'394  7'996'937        2    30'647     358'762         420'859      4'037
       'no_lp':    383'954  3'223'365        0    28'181     391'993          98'849      2'303

Clause deletion    at_true  l_and_not(l)  to_binary  sub_conflict  sub_extra  sub_decisions  sub_eager  sub_vivify  sub_probing  sub_inpro  blocked  eliminated   forgotten    promoted   conflicts
    'default_lp':    8'090           150         18       108'955        689          3'381      1'883      26'420       11'308     30'389        0           0     149'976     599'669     298'768
        'max_lp':    5'671           138         28        72'115        699          1'756        944      30'647       11'968     35'956        0           0     124'746     499'761     240'314
         'no_lp':   57'015           332         59     5'103'383     40'517        229'586     94'154      28'181       28'048    164'194        0           0  13'873'092  44'822'292  19'712'044

Lp stats         Component  Iterations  AddedCuts  OPTIMAL  DUAL_F.  DUAL_U.
  'default_lp':          1  34'364'945    126'642  412'235        1  195'347
      'max_lp':          1  15'864'934    140'432   66'546  202'475   40'395

Lp dimension        Final dimension of first component
  'default_lp':    322 rows, 371 columns, 2799 entries
      'max_lp':  1426 rows, 511 columns, 22948 entries

Lp debug         CutPropag  CutEqPropag   Adjust  Overflow        Bad  BadScaling
  'default_lp':          0           92  195'343         0  3'241'066           0
      'max_lp':          0           25   40'384         0  4'082'631           0

Lp pool          Constraints  Updates  Simplif  Merged  Shortened  Split  Strengthened        Cuts/Call
  'default_lp':       10'458   29'923        0       1      3'830      0             8  126'642/248'336
      'max_lp':       12'644   57'600        0       3        887      0         2'534  140'432/307'601

Lp Cut            default_lp   max_lp
          CG_FF:       1'326      134
           CG_K:         802       15
          CG_KL:         658        4
           CG_R:       1'399       71
          CG_RB:          59        1
         CG_RBP:          18        -
         Clique:           -      832
             IB:         185       31
       MIR_1_FF:         844    1'134
        MIR_1_K:         255       44
       MIR_1_KL:         557       59
        MIR_1_R:         755      547
       MIR_1_RB:          14        4
      MIR_1_RBP:           1        -
      MIR_1_RLT:           -   12'764
       MIR_2_FF:       1'005    1'260
        MIR_2_K:         295      239
       MIR_2_KL:         431      123
        MIR_2_R:       1'375    1'223
       MIR_2_RB:          20        5
      MIR_2_RBP:          17        4
       MIR_3_FF:         476      352
        MIR_3_K:         112       42
       MIR_3_KL:         139       21
        MIR_3_R:         973      395
       MIR_3_RB:          17        2
      MIR_3_RBP:          23       11
       MIR_4_FF:         194      104
        MIR_4_K:          55       30
       MIR_4_KL:          48        5
        MIR_4_R:         900      385
       MIR_4_RB:          26        5
      MIR_4_RBP:          31       14
       MIR_5_FF:          82       27
        MIR_5_K:          20        6
       MIR_5_KL:           4        2
        MIR_5_R:         629      343
       MIR_5_RB:          17        2
      MIR_5_RBP:          15       16
       MIR_6_FF:          55       16
        MIR_6_K:          19        4
       MIR_6_KL:           3        1
        MIR_6_R:         488      289
       MIR_6_RB:          15        6
      MIR_6_RBP:          18       14
   ZERO_HALF_FF:         507      978
    ZERO_HALF_K:         171       79
   ZERO_HALF_KL:         143        7
    ZERO_HALF_R:     111'295  118'587
   ZERO_HALF_RB:          17       31
  ZERO_HALF_RBP:         134      164

LNS stats       Improv/Calls  Closed  Difficulty  TimeLimit
  'rins/rens':   12773/12773     50%    7.88e-01       0.10

LS stats                                    Batches  Restarts/Perturbs    LinMoves    GenMoves  CompoundMoves  Bactracks  WeightUpdates  ScoreComputed
                             'fj_restart':    1'192                143  33'328'597           0              0          0     32'715'258     82'010'798
                    'fj_restart_compound':      729                151           0   9'267'885        391'004  4'438'112         21'202    139'471'477
                'fj_restart_compound_obj':      466                131           0   5'775'033        330'502  2'722'022         11'745     89'085'821
            'fj_restart_compound_perturb':      548                157           0   6'829'182        390'584  3'218'970         13'636    104'952'883
        'fj_restart_compound_perturb_obj':      759                145           0   9'573'210        385'617  4'593'474         23'152    144'906'775
                       'fj_restart_decay':    1'072                142  38'181'366           0              0          0      1'535'016     33'372'021
              'fj_restart_decay_compound':      538                140           0   7'276'075      1'116'152  3'079'597          6'991    104'981'135
          'fj_restart_decay_compound_obj':      367                135           0   4'783'968        734'120  2'024'510          4'850     71'316'792
      'fj_restart_decay_compound_perturb':      478                126           0   6'484'395        988'429  2'747'708          6'205     93'420'984
  'fj_restart_decay_compound_perturb_obj':      998                149           0  14'017'241      2'144'630  5'935'931         12'642    194'435'526
                   'fj_restart_decay_obj':      947                139  33'703'533           0              0          0      1'353'403     30'347'696
               'fj_restart_decay_perturb':      478                146  16'988'680           0              0          0        683'809     15'029'561
           'fj_restart_decay_perturb_obj':      699                136  24'863'411           0              0          0        998'282     22'604'447
                         'fj_restart_obj':      585                139  17'253'756           0              0          0     14'742'929     40'880'100
                     'fj_restart_perturb':      397                157  11'467'463           0              0          0      9'929'603     28'052'233
                 'fj_restart_perturb_obj':      392                115  11'297'970           0              0          0      9'906'527     27'364'361

Solution repositories    Added  Queried  Synchro
    'alternative_path':      0        0        0
      'best_solutions':      0        0        0
   'fj solution hints':  2'243        0    2'243
        'lp solutions':  2'573   12'773    2'563
                'pump':      0        0

Improving bounds shared    Num  Sym
            'default_lp':   19    0
                'max_lp':   14    0
                 'no_lp':   19    0

Clauses shared    #Exported  #Imported  #BinaryRead  #BinaryTotal
   'default_lp':      8'453    103'409        1'785         1'901
       'max_lp':      9'845    103'689        1'831         1'901
        'no_lp':     99'451     17'932        1'901         1'901

LRAT_status: NA
CpSolverResponse summary:
status: INFEASIBLE
objective: NA
best_bound: NA
integers: 371
booleans: 499
conflicts: 19712044
branches: 26770146
propagations: 1635630252
integer_propagations: 452151963
restarts: 64817
lp_iterations: 0
walltime: 2509.93
usertime: 2509.93
deterministic_time: 14475.4
gap_integral: 0

{
  "board_size": 22,
  "parity_proved": 0,
  "target": 34,
  "child_id": 688,
  "child_count": 2640,
  "partition": "unknown_pair_x_diag_plus_twos_x_diag_minus_twos",
  "build_seconds": 0.06386590003967285,
  "workers": 4,
  "requested_seed": 2026072888,
  "effective_seed": 2026072888,
  "main_diagonal_pair": [
    2,
    4
  ],
  "pair_index": 41,
  "diag_plus_twos": 17,
  "diag_minus_twos": 16,
  "pair_excess": 0,
  "residual_certificate_slack": 112,
  "analytic_minimum_line_defect": 0,
  "analytic_defect_details": {
    "row_costs": {
      "12": 6,
      "13": 3,
      "14": 0,
      "15": 0,
      "16": 0,
      "17": 0
    },
    "column_costs": {
      "12": 6,
      "13": 3,
      "14": 0,
      "15": 0,
      "16": 0,
      "17": 0
    },
    "plus_cost": 0,
    "minus_cost": 0,
    "row_column_minimum": 0
  },
  "maximal_line_constraints": 2455,
  "analytic_infeasible": false,
  "allowed_points": 242,
  "status": "INFEASIBLE",
  "proof_method": "cp_sat_all_lines_with_certificate_profile_cuts",
  "elapsed_seconds": 2509.9352099895477,
  "branches": 26770146,
  "conflicts": 19712044
}
